words_hard_train/5621.qaiger
aag 67 15 0 1 52
2
4
12
14
18
20
26
30
40
42
46
48
54
58
124
135
6 2 5
8 3 4
10 7 9
16 13 15
22 19 21
24 16 22
28 24 27
32 28 31
34 10 33
36 11 32
38 35 37
44 41 43
50 47 49
52 44 50
56 52 55
60 56 59
62 39 61
64 38 60
66 63 65
68 57 58
70 69 61
72 29 30
74 73 33
76 71 75
78 70 74
80 77 79
82 53 54
84 83 57
86 25 26
88 87 29
90 85 89
92 84 88
94 91 93
96 20 41
98 18 48
100 19 49
102 99 101
104 97 103
106 12 42
108 13 43
110 107 109
112 104 111
114 21 40
116 46 14
118 47 15
120 117 119
122 115 121
126 122 124
128 112 126
130 95 128
132 81 130
134 67 132
i0 1 x2[7]
i1 2 y2[6]
i2 2 y2[0]
i3 2 y2[1]
i4 2 y2[2]
i5 2 y2[3]
i6 2 y2[4]
i7 2 y2[5]
i8 1 x2[4]
i9 1 x2[1]
i10 1 x2[2]
i11 1 x2[3]
i12 1 x2[5]
i13 1 x2[6]
i14 1 x2[0]
o0 bool[0]
c
simplified
  !=
    subtract
      1
      1 x2
    subtract
      unary minus
        2 y2
      2 y2
