words_hard_train/5621.qaiger.qdimacs
p cnf 67 157
a 1 20 21 23 24 27 29 62 0
e 2 3 4 5 6 7 8 9 10 11 12 13 14 15 16 17 18 19 22 25 26 28 30 31 32 33 34 35 36 37 38 39 40 41 42 43 44 45 46 47 48 49 50 51 52 53 54 55 56 57 58 59 60 61 63 64 65 66 67 0
-1 2 3 0
1 -3 0
-2 -3 0
1 -2 4 0
-1 -4 0
2 -4 0
3 4 5 0
-3 -5 0
-4 -5 0
6 7 8 0
-6 -8 0
-7 -8 0
9 10 11 0
-9 -11 0
-10 -11 0
-8 -11 12 0
8 -12 0
11 -12 0
-12 13 14 0
12 -14 0
-13 -14 0
-14 15 16 0
14 -16 0
-15 -16 0
-5 16 17 0
5 -17 0
-16 -17 0
5 -16 18 0
-5 -18 0
16 -18 0
17 18 19 0
-17 -19 0
-18 -19 0
20 21 22 0
-20 -22 0
-21 -22 0
23 24 25 0
-23 -25 0
-24 -25 0
-22 -25 26 0
22 -26 0
25 -26 0
-26 27 28 0
26 -28 0
-27 -28 0
-28 29 30 0
28 -30 0
-29 -30 0
19 30 31 0
-19 -31 0
-30 -31 0
-19 -30 32 0
19 -32 0
30 -32 0
31 32 33 0
-31 -33 0
-32 -33 0
28 -29 34 0
-28 -34 0
29 -34 0
34 30 35 0
-34 -35 0
-30 -35 0
14 -15 36 0
-14 -36 0
15 -36 0
36 16 37 0
-36 -37 0
-16 -37 0
35 37 38 0
-35 -38 0
-37 -38 0
-35 -37 39 0
35 -39 0
37 -39 0
38 39 40 0
-38 -40 0
-39 -40 0
26 -27 41 0
-26 -41 0
27 -41 0
41 28 42 0
-41 -42 0
-28 -42 0
12 -13 43 0
-12 -43 0
13 -43 0
43 14 44 0
-43 -44 0
-14 -44 0
42 44 45 0
-42 -45 0
-44 -45 0
-42 -44 46 0
42 -46 0
44 -46 0
45 46 47 0
-45 -47 0
-46 -47 0
-10 20 48 0
10 -48 0
-20 -48 0
-9 -24 49 0
9 -49 0
24 -49 0
9 24 50 0
-9 -50 0
-24 -50 0
49 50 51 0
-49 -51 0
-50 -51 0
48 51 52 0
-48 -52 0
-51 -52 0
-6 -21 53 0
6 -53 0
21 -53 0
6 21 54 0
-6 -54 0
-21 -54 0
53 54 55 0
-53 -55 0
-54 -55 0
-52 55 56 0
52 -56 0
-55 -56 0
10 -20 57 0
-10 -57 0
20 -57 0
-23 -7 58 0
23 -58 0
7 -58 0
23 7 59 0
-23 -59 0
-7 -59 0
58 59 60 0
-58 -60 0
-59 -60 0
57 60 61 0
-57 -61 0
-60 -61 0
-61 -62 63 0
61 -63 0
62 -63 0
-56 -63 64 0
56 -64 0
63 -64 0
47 -64 65 0
-47 -65 0
64 -65 0
40 -65 66 0
-40 -66 0
65 -66 0
33 -66 67 0
-33 -67 0
66 -67 0
-67 0
